40
475
5
2
37
17
50
91
0 1
0 2
0 5
0 6
0 7
0 8
0 9
0 11
0 12
0 13
0 14
0 15
0 16
0 17
0 18
0 19
0 21
0 22
0 24
0 25
0 26
0 27
0 28
0 29
0 30
0 32
0 34
0 35
0 38
0 39
1 6
1 7
1 8
1 9
1 10
1 11
1 18
1 23
1 24
1 25
1 26
1 27
1 28
1 31
1 32
1 33
1 34
1 36
1 37
2 3
2 4
2 6
2 7
2 9
2 11
2 13
2 14
2 17
2 18
2 19
2 20
2 23
2 25
2 26
2 28
2 29
2 30
2 32
2 33
2 34
2 36
2 38
2 39
3 4
3 6
3 7
3 8
3 9
3 10
3 14
3 17
3 18
3 19
3 20
3 22
3 24
3 25
3 26
3 27
3 29
3 30
3 31
3 32
3 33
3 34
3 36
3 37
3 39
4 5
4 8
4 10
4 11
4 12
4 13
4 15
4 16
4 17
4 18
4 19
4 21
4 24
4 25
4 26
4 28
4 33
4 35
4 37
4 38
4 39
5 6
5 8
5 10
5 11
5 13
5 14
5 15
5 17
5 18
5 19
5 20
5 23
5 24
5 25
5 26
5 27
5 28
5 29
5 30
5 31
5 32
5 33
5 34
5 35
5 36
5 37
5 39
6 9
6 11
6 12
6 17
6 18
6 19
6 20
6 21
6 23
6 25
6 26
6 28
6 29
6 31
6 33
6 35
6 38
6 39
7 9
7 10
7 12
7 13
7 19
7 21
7 26
7 28
7 29
7 30
7 31
7 32
7 35
7 36
7 37
7 38
7 39
8 13
8 14
8 17
8 20
8 21
8 22
8 23
8 25
8 26
8 27
8 28
8 29
8 31
8 34
8 37
8 38
8 39
9 10
9 11
9 12
9 13
9 15
9 18
9 20
9 21
9 22
9 25
9 27
9 28
9 33
9 35
9 36
9 38
9 39
10 11
10 12
10 17
10 21
10 22
10 26
10 28
10 30
10 31
10 35
11 13
11 14
11 18
11 21
11 22
11 24
11 25
11 26
11 27
11 28
11 29
11 30
11 31
11 33
11 34
11 35
11 36
11 37
11 38
11 39
12 13
12 14
12 15
12 18
12 19
12 20
12 21
12 24
12 25
12 26
12 27
12 28
12 30
12 31
12 32
12 33
12 35
12 36
12 38
13 14
13 15
13 16
13 18
13 19
13 20
13 22
13 24
13 25
13 28
13 29
13 30
13 34
13 35
13 36
13 37
13 38
13 39
14 18
14 19
14 21
14 22
14 26
14 27
14 28
14 29
14 31
14 32
14 33
14 34
14 35
14 37
14 39
15 16
15 18
15 19
15 20
15 21
15 24
15 25
15 26
15 29
15 30
15 31
15 32
15 35
15 37
15 39
16 18
16 20
16 21
16 22
16 24
16 25
16 26
16 27
16 30
16 31
16 33
16 36
16 39
17 18
17 20
17 21
17 24
17 26
17 28
17 29
17 30
17 31
17 32
17 34
17 36
17 38
17 39
18 22
18 24
18 25
18 27
18 28
18 33
18 37
18 39
19 20
19 21
19 25
19 26
19 28
19 30
19 31
19 32
19 33
19 35
19 36
20 21
20 23
20 24
20 25
20 26
20 27
20 28
20 29
20 30
20 31
20 32
20 33
20 35
20 36
20 37
20 38
21 22
21 23
21 24
21 26
21 27
21 28
21 31
21 33
21 34
21 35
21 37
21 38
22 23
22 24
22 25
22 27
22 28
22 29
22 30
22 34
22 36
22 37
23 25
23 26
23 27
23 28
23 36
23 37
24 29
24 31
24 32
24 33
24 35
24 37
24 38
24 39
25 26
25 27
25 28
25 30
25 31
25 32
26 28
26 29
26 30
26 31
26 32
26 35
26 36
26 37
26 38
26 39
27 28
27 29
27 30
27 37
27 38
27 39
28 29
28 31
28 32
28 33
28 35
28 37
28 38
28 39
29 30
29 32
29 33
29 34
30 32
30 35
30 36
31 32
31 34
31 35
31 36
31 37
31 39
32 33
32 34
32 35
32 37
32 38
32 39
33 35
33 37
33 38
33 39
34 35
34 38
34 39
35 36
35 37
35 38
35 39
36 38
36 39
37 38
37 39
38 39
14 3 34 28 0 10 29 23
11 32 15 25 13 33 24 8
12 16 7 27 22 38 39 37
6 36 35 21 17 19 20 2
5 9 1 4 18 30 26 31
